(set-logic QF_LRA)
(declare-fun fluent_ready_i0_t0@1 () Bool)
(declare-fun fluent_ready_i1_t0@1 () Bool)
(declare-fun fluent_ready_i0_t1@1 () Bool)
(declare-fun fluent_ready_i1_t1@1 () Bool)
(declare-fun fluent_ready_i0_t2@1 () Bool)
(declare-fun fluent_started_i0_t0@0 () Bool)
(declare-fun fluent_started_i1_t0@0 () Bool)
(declare-fun fluent_started_i0_t1@0 () Bool)
(declare-fun fluent_started_i1_t1@0 () Bool)
(declare-fun fluent_started_i0_t2@0 () Bool)
(declare-fun fluent_started_i1_t2@0 () Bool)
(declare-fun fluent_started_i0_t3@0 () Bool)
(declare-fun fluent_ready_i1_t2@1 () Bool)
(declare-fun fluent_ready_i0_t0@0 () Bool)
(declare-fun fluent_ready_i1_t0@0 () Bool)
(declare-fun fluent_ready_i0_t1@0 () Bool)
(declare-fun fluent_ready_i1_t1@0 () Bool)
(declare-fun fluent_ready_i0_t2@0 () Bool)
(declare-fun fluent_ready_i1_t2@0 () Bool)
(declare-fun fluent_ready_i0_t3@0 () Bool)
(declare-fun fluent_ready_i1_t3@0 () Bool)
(declare-fun act_make_treatment@1 () Bool)
(declare-fun fluent_started_i1_t3@0 () Bool)
(declare-fun fluent_busy_@0 () Bool)
(declare-fun fluent_treated_i0_t0@0 () Bool)
(declare-fun fluent_treated_i1_t0@0 () Bool)
(declare-fun fluent_treated_i0_t1@0 () Bool)
(declare-fun fluent_treated_i1_t1@0 () Bool)
(declare-fun fluent_treated_i0_t2@0 () Bool)
(declare-fun fluent_treated_i1_t2@0 () Bool)
(declare-fun fluent_treated_i0_t3@0 () Bool)
(declare-fun fluent_treated_i1_t3@0 () Bool)
(declare-fun fluent_counter_t0@0 () Real)
(declare-fun fluent_counter_t1@0 () Real)
(declare-fun fluent_counter_t2@0 () Real)
(declare-fun fluent_counter_t3@0 () Real)
(declare-fun fluent_ready_i0_t3@1 () Bool)
(declare-fun dur_make_treatment@1 () Real)
(declare-fun t@1 () Real)
(declare-fun fluent_ready_i1_t3@1 () Bool)
(declare-fun parameter_make_treatment_t@1 () Real)
(declare-fun parameter_make_treatment_i@1 () Real)
(declare-fun parameter_make_treatment_next@1 () Real)
(declare-fun fluent_counter_t0@1 () Real)
(declare-fun fluent_counter_t1@1 () Real)
(declare-fun fluent_counter_t2@1 () Real)
(declare-fun fluent_counter_t3@1 () Real)
(declare-fun fluent_busy_@1 () Bool)
(declare-fun fluent_started_i0_t0@1 () Bool)
(declare-fun fluent_started_i1_t0@1 () Bool)
(declare-fun fluent_started_i0_t1@1 () Bool)
(declare-fun fluent_started_i1_t1@1 () Bool)
(declare-fun fluent_started_i0_t2@1 () Bool)
(declare-fun fluent_started_i1_t2@1 () Bool)
(declare-fun fluent_started_i0_t3@1 () Bool)
(declare-fun fluent_started_i1_t3@1 () Bool)
(declare-fun fluent_treated_i0_t0@1 () Bool)
(declare-fun fluent_treated_i1_t0@1 () Bool)
(declare-fun fluent_treated_i0_t1@1 () Bool)
(declare-fun fluent_treated_i1_t1@1 () Bool)
(declare-fun fluent_treated_i0_t2@1 () Bool)
(declare-fun fluent_treated_i1_t2@1 () Bool)
(declare-fun fluent_treated_i0_t3@1 () Bool)
(declare-fun fluent_treated_i1_t3@1 () Bool)
(assert (let ((.def_0 (<= fluent_counter_t3@1 31.0))) (let ((.def_1 (<= 0.0 fluent_counter_t3@1))) (let ((.def_2 (<= fluent_counter_t2@1 31.0))) (let ((.def_3 (<= 0.0 fluent_counter_t2@1))) (let ((.def_4 (= parameter_make_treatment_next@1 5.0))) (let ((.def_5 (= parameter_make_treatment_next@1 4.0))) (let ((.def_6 (= parameter_make_treatment_next@1 3.0))) (let ((.def_7 (= parameter_make_treatment_next@1 2.0))) (let ((.def_8 (or .def_7 .def_6 .def_5 .def_4))) (let ((.def_9 (<= fluent_counter_t1@1 31.0))) (let ((.def_10 (<= 0.0 fluent_counter_t1@1))) (let ((.def_11 (= parameter_make_treatment_i@1 1.0))) (let ((.def_12 (= parameter_make_treatment_i@1 0.0))) (let ((.def_13 (or .def_12 .def_11))) (let ((.def_14 (<= fluent_counter_t0@1 31.0))) (let ((.def_15 (<= 0.0 fluent_counter_t0@1))) (let ((.def_16 (= parameter_make_treatment_t@1 5.0))) (let ((.def_17 (= parameter_make_treatment_t@1 4.0))) (let ((.def_18 (= parameter_make_treatment_t@1 3.0))) (let ((.def_19 (= parameter_make_treatment_t@1 2.0))) (let ((.def_20 (or .def_19 .def_18 .def_17 .def_16))) (let ((.def_21 (and act_make_treatment@1 true .def_16))) (let ((.def_22 (= fluent_counter_t3@0 fluent_counter_t3@1))) (let ((.def_23 (not .def_22))) (let ((.def_24 (=> .def_23 .def_21))) (let ((.def_25 (and act_make_treatment@1 true .def_17))) (let ((.def_26 (= fluent_counter_t2@0 fluent_counter_t2@1))) (let ((.def_27 (not .def_26))) (let ((.def_28 (=> .def_27 .def_25))) (let ((.def_29 (and act_make_treatment@1 true .def_18))) (let ((.def_30 (= fluent_counter_t1@0 fluent_counter_t1@1))) (let ((.def_31 (not .def_30))) (let ((.def_32 (=> .def_31 .def_29))) (let ((.def_33 (and act_make_treatment@1 true .def_19))) (let ((.def_34 (= fluent_counter_t0@0 fluent_counter_t0@1))) (let ((.def_35 (not .def_34))) (let ((.def_36 (=> .def_35 .def_33))) (let ((.def_37 (+ t@1 10.0))) (let ((.def_38 (= t@1 .def_37))) (let ((.def_39 (and act_make_treatment@1 true .def_38 .def_11 .def_4))) (let ((.def_40 (= fluent_ready_i1_t3@0 fluent_ready_i1_t3@1))) (let ((.def_41 (not .def_40))) (let ((.def_42 (=> .def_41 .def_39))) (let ((.def_43 (and act_make_treatment@1 true .def_38 .def_12 .def_4))) (let ((.def_44 (= fluent_ready_i0_t3@0 fluent_ready_i0_t3@1))) (let ((.def_45 (not .def_44))) (let ((.def_46 (=> .def_45 .def_43))) (let ((.def_47 (and act_make_treatment@1 true .def_38 .def_11 .def_5))) (let ((.def_48 (= fluent_ready_i1_t2@0 fluent_ready_i1_t2@1))) (let ((.def_49 (not .def_48))) (let ((.def_50 (=> .def_49 .def_47))) (let ((.def_51 (and act_make_treatment@1 true .def_38 .def_12 .def_5))) (let ((.def_52 (= fluent_ready_i0_t2@0 fluent_ready_i0_t2@1))) (let ((.def_53 (not .def_52))) (let ((.def_54 (=> .def_53 .def_51))) (let ((.def_55 (and act_make_treatment@1 true .def_38 .def_11 .def_6))) (let ((.def_56 (= fluent_ready_i1_t1@0 fluent_ready_i1_t1@1))) (let ((.def_57 (not .def_56))) (let ((.def_58 (=> .def_57 .def_55))) (let ((.def_59 (and act_make_treatment@1 true .def_38 .def_12 .def_6))) (let ((.def_60 (= fluent_ready_i0_t1@0 fluent_ready_i0_t1@1))) (let ((.def_61 (not .def_60))) (let ((.def_62 (=> .def_61 .def_59))) (let ((.def_63 (and act_make_treatment@1 true .def_38 .def_11 .def_7))) (let ((.def_64 (= fluent_ready_i1_t0@0 fluent_ready_i1_t0@1))) (let ((.def_65 (not .def_64))) (let ((.def_66 (=> .def_65 .def_63))) (let ((.def_67 (and act_make_treatment@1 true .def_38 .def_12 .def_7))) (let ((.def_68 (= fluent_ready_i0_t0@0 fluent_ready_i0_t0@1))) (let ((.def_69 (not .def_68))) (let ((.def_70 (=> .def_69 .def_67))) (let ((.def_71 (and act_make_treatment@1 true .def_11 .def_16))) (let ((.def_72 (= fluent_started_i1_t3@0 fluent_started_i1_t3@1))) (let ((.def_73 (not .def_72))) (let ((.def_74 (=> .def_73 .def_71))) (let ((.def_75 (and act_make_treatment@1 true .def_12 .def_16))) (let ((.def_76 (= fluent_started_i0_t3@0 fluent_started_i0_t3@1))) (let ((.def_77 (not .def_76))) (let ((.def_78 (=> .def_77 .def_75))) (let ((.def_79 (and act_make_treatment@1 true .def_11 .def_17))) (let ((.def_80 (= fluent_started_i1_t2@0 fluent_started_i1_t2@1))) (let ((.def_81 (not .def_80))) (let ((.def_82 (=> .def_81 .def_79))) (let ((.def_83 (and act_make_treatment@1 true .def_12 .def_17))) (let ((.def_84 (= fluent_started_i0_t2@0 fluent_started_i0_t2@1))) (let ((.def_85 (not .def_84))) (let ((.def_86 (=> .def_85 .def_83))) (let ((.def_87 (and act_make_treatment@1 true .def_11 .def_18))) (let ((.def_88 (= fluent_started_i1_t1@0 fluent_started_i1_t1@1))) (let ((.def_89 (not .def_88))) (let ((.def_90 (=> .def_89 .def_87))) (let ((.def_91 (and act_make_treatment@1 true .def_12 .def_18))) (let ((.def_92 (= fluent_started_i0_t1@0 fluent_started_i0_t1@1))) (let ((.def_93 (not .def_92))) (let ((.def_94 (=> .def_93 .def_91))) (let ((.def_95 (and act_make_treatment@1 true .def_11 .def_19))) (let ((.def_96 (= fluent_started_i1_t0@0 fluent_started_i1_t0@1))) (let ((.def_97 (not .def_96))) (let ((.def_98 (=> .def_97 .def_95))) (let ((.def_99 (and act_make_treatment@1 true .def_12 .def_19))) (let ((.def_100 (= fluent_started_i0_t0@0 fluent_started_i0_t0@1))) (let ((.def_101 (not .def_100))) (let ((.def_102 (=> .def_101 .def_99))) (let ((.def_103 (+ t@1 4.0))) (let ((.def_104 (= t@1 .def_103))) (let ((.def_105 (and act_make_treatment@1 true .def_104 .def_11 .def_16))) (let ((.def_106 (= fluent_treated_i1_t3@0 fluent_treated_i1_t3@1))) (let ((.def_107 (not .def_106))) (let ((.def_108 (=> .def_107 .def_105))) (let ((.def_109 (and act_make_treatment@1 true .def_104 .def_12 .def_16))) (let ((.def_110 (= fluent_treated_i0_t3@0 fluent_treated_i0_t3@1))) (let ((.def_111 (not .def_110))) (let ((.def_112 (=> .def_111 .def_109))) (let ((.def_113 (and act_make_treatment@1 true .def_104 .def_11 .def_17))) (let ((.def_114 (= fluent_treated_i1_t2@0 fluent_treated_i1_t2@1))) (let ((.def_115 (not .def_114))) (let ((.def_116 (=> .def_115 .def_113))) (let ((.def_117 (and act_make_treatment@1 true .def_104 .def_12 .def_17))) (let ((.def_118 (= fluent_treated_i0_t2@0 fluent_treated_i0_t2@1))) (let ((.def_119 (not .def_118))) (let ((.def_120 (=> .def_119 .def_117))) (let ((.def_121 (and act_make_treatment@1 true .def_104 .def_11 .def_18))) (let ((.def_122 (= fluent_treated_i1_t1@0 fluent_treated_i1_t1@1))) (let ((.def_123 (not .def_122))) (let ((.def_124 (=> .def_123 .def_121))) (let ((.def_125 (and act_make_treatment@1 true .def_104 .def_12 .def_18))) (let ((.def_126 (= fluent_treated_i0_t1@0 fluent_treated_i0_t1@1))) (let ((.def_127 (not .def_126))) (let ((.def_128 (=> .def_127 .def_125))) (let ((.def_129 (and act_make_treatment@1 true .def_104 .def_11 .def_19))) (let ((.def_130 (= fluent_treated_i1_t0@0 fluent_treated_i1_t0@1))) (let ((.def_131 (not .def_130))) (let ((.def_132 (=> .def_131 .def_129))) (let ((.def_133 (and act_make_treatment@1 true .def_104 .def_12 .def_19))) (let ((.def_134 (= fluent_treated_i0_t0@0 fluent_treated_i0_t0@1))) (let ((.def_135 (not .def_134))) (let ((.def_136 (=> .def_135 .def_133))) (let ((.def_137 (and act_make_treatment@1 true .def_104))) (let ((.def_138 (and act_make_treatment@1 true))) (let ((.def_139 (and .def_138 .def_137))) (let ((.def_140 (not .def_139))) (let ((.def_141 (or .def_138 .def_137))) (let ((.def_142 (= fluent_busy_@0 fluent_busy_@1))) (let ((.def_143 (not .def_142))) (let ((.def_144 (=> .def_143 .def_141))) (let ((.def_145 (and .def_144 .def_140 .def_136 .def_132 .def_128 .def_124 .def_120 .def_116 .def_112 .def_108 .def_102 .def_98 .def_94 .def_90 .def_86 .def_82 .def_78 .def_74 .def_70 .def_66 .def_62 .def_58 .def_54 .def_50 .def_46 .def_42 .def_36 .def_32 .def_28 .def_24))) (let ((.def_146 (<= 0.0 t@1))) (let ((.def_147 (and .def_11 .def_7))) (let ((.def_148 (ite .def_147 fluent_ready_i1_t0@1 fluent_ready_i0_t0@1))) (let ((.def_149 (and .def_12 .def_6))) (let ((.def_150 (ite .def_149 fluent_ready_i0_t1@1 .def_148))) (let ((.def_151 (and .def_11 .def_6))) (let ((.def_152 (ite .def_151 fluent_ready_i1_t1@1 .def_150))) (let ((.def_153 (and .def_12 .def_5))) (let ((.def_154 (ite .def_153 fluent_ready_i0_t2@1 .def_152))) (let ((.def_155 (and .def_11 .def_5))) (let ((.def_156 (ite .def_155 fluent_ready_i1_t2@1 .def_154))) (let ((.def_157 (and .def_12 .def_4))) (let ((.def_158 (ite .def_157 fluent_ready_i0_t3@1 .def_156))) (let ((.def_159 (and .def_11 .def_4))) (let ((.def_160 (ite .def_159 fluent_ready_i1_t3@1 .def_158))) (let ((.def_161 (= .def_160 true))) (let ((.def_162 (=> true .def_161))) (let ((.def_163 (and .def_38 .def_162))) (let ((.def_164 (= fluent_busy_@1 false))) (let ((.def_165 (=> true .def_164))) (let ((.def_166 (and .def_11 .def_19))) (let ((.def_167 (ite .def_166 fluent_treated_i1_t0@1 fluent_treated_i0_t0@1))) (let ((.def_168 (and .def_12 .def_18))) (let ((.def_169 (ite .def_168 fluent_treated_i0_t1@1 .def_167))) (let ((.def_170 (and .def_11 .def_18))) (let ((.def_171 (ite .def_170 fluent_treated_i1_t1@1 .def_169))) (let ((.def_172 (and .def_12 .def_17))) (let ((.def_173 (ite .def_172 fluent_treated_i0_t2@1 .def_171))) (let ((.def_174 (and .def_11 .def_17))) (let ((.def_175 (ite .def_174 fluent_treated_i1_t2@1 .def_173))) (let ((.def_176 (and .def_12 .def_16))) (let ((.def_177 (ite .def_176 fluent_treated_i0_t3@1 .def_175))) (let ((.def_178 (and .def_11 .def_16))) (let ((.def_179 (ite .def_178 fluent_treated_i1_t3@1 .def_177))) (let ((.def_180 (= .def_179 true))) (let ((.def_181 (=> true .def_180))) (let ((.def_182 (and .def_104 .def_181 .def_165))) (let ((.def_183 (ite .def_166 fluent_started_i1_t0@1 fluent_started_i0_t0@1))) (let ((.def_184 (ite .def_168 fluent_started_i0_t1@1 .def_183))) (let ((.def_185 (ite .def_170 fluent_started_i1_t1@1 .def_184))) (let ((.def_186 (ite .def_172 fluent_started_i0_t2@1 .def_185))) (let ((.def_187 (ite .def_174 fluent_started_i1_t2@1 .def_186))) (let ((.def_188 (ite .def_176 fluent_started_i0_t3@1 .def_187))) (let ((.def_189 (ite .def_178 fluent_started_i1_t3@1 .def_188))) (let ((.def_190 (= .def_189 true))) (let ((.def_191 (=> true .def_190))) (let ((.def_192 (= fluent_busy_@1 true))) (let ((.def_193 (=> true .def_192))) (let ((.def_194 (ite .def_18 fluent_counter_t1@0 fluent_counter_t0@0))) (let ((.def_195 (ite .def_17 fluent_counter_t2@0 .def_194))) (let ((.def_196 (ite .def_16 fluent_counter_t3@0 .def_195))) (let ((.def_197 (+ .def_196 1.0))) (let ((.def_198 (ite .def_18 fluent_counter_t1@1 fluent_counter_t0@1))) (let ((.def_199 (ite .def_17 fluent_counter_t2@1 .def_198))) (let ((.def_200 (ite .def_16 fluent_counter_t3@1 .def_199))) (let ((.def_201 (= .def_200 .def_197))) (let ((.def_202 (=> true .def_201))) (let ((.def_203 (= t@1 t@1))) (let ((.def_204 (and .def_203 .def_202 .def_193 .def_191))) (let ((.def_205 (ite .def_147 fluent_started_i1_t0@0 fluent_started_i0_t0@0))) (let ((.def_206 (ite .def_149 fluent_started_i0_t1@0 .def_205))) (let ((.def_207 (ite .def_151 fluent_started_i1_t1@0 .def_206))) (let ((.def_208 (ite .def_153 fluent_started_i0_t2@0 .def_207))) (let ((.def_209 (ite .def_155 fluent_started_i1_t2@0 .def_208))) (let ((.def_210 (ite .def_157 fluent_started_i0_t3@0 .def_209))) (let ((.def_211 (ite .def_159 fluent_started_i1_t3@0 .def_210))) (let ((.def_212 (+ t@1 dur_make_treatment@1))) (let ((.def_213 (<= .def_212 t@1))) (let ((.def_214 (< (- 1.0) .def_212))) (let ((.def_215 (and .def_214 .def_213))) (let ((.def_216 (=> .def_215 .def_211))) (let ((.def_217 (ite .def_166 fluent_ready_i1_t0@0 fluent_ready_i0_t0@0))) (let ((.def_218 (ite .def_168 fluent_ready_i0_t1@0 .def_217))) (let ((.def_219 (ite .def_170 fluent_ready_i1_t1@0 .def_218))) (let ((.def_220 (ite .def_172 fluent_ready_i0_t2@0 .def_219))) (let ((.def_221 (ite .def_174 fluent_ready_i1_t2@0 .def_220))) (let ((.def_222 (ite .def_176 fluent_ready_i0_t3@0 .def_221))) (let ((.def_223 (ite .def_178 fluent_ready_i1_t3@0 .def_222))) (let ((.def_224 (ite .def_166 fluent_started_i1_t0@0 fluent_started_i0_t0@0))) (let ((.def_225 (ite .def_168 fluent_started_i0_t1@0 .def_224))) (let ((.def_226 (ite .def_170 fluent_started_i1_t1@0 .def_225))) (let ((.def_227 (ite .def_172 fluent_started_i0_t2@0 .def_226))) (let ((.def_228 (ite .def_174 fluent_started_i1_t2@0 .def_227))) (let ((.def_229 (ite .def_176 fluent_started_i0_t3@0 .def_228))) (let ((.def_230 (ite .def_178 fluent_started_i1_t3@0 .def_229))) (let ((.def_231 (not .def_230))) (let ((.def_232 (ite .def_166 fluent_treated_i1_t0@0 fluent_treated_i0_t0@0))) (let ((.def_233 (ite .def_168 fluent_treated_i0_t1@0 .def_232))) (let ((.def_234 (ite .def_170 fluent_treated_i1_t1@0 .def_233))) (let ((.def_235 (ite .def_172 fluent_treated_i0_t2@0 .def_234))) (let ((.def_236 (ite .def_174 fluent_treated_i1_t2@0 .def_235))) (let ((.def_237 (ite .def_176 fluent_treated_i0_t3@0 .def_236))) (let ((.def_238 (ite .def_178 fluent_treated_i1_t3@0 .def_237))) (let ((.def_239 (not .def_238))) (let ((.def_240 (not fluent_busy_@0))) (let ((.def_241 (and .def_18 .def_7))) (let ((.def_242 (ite .def_241 false false))) (let ((.def_243 (and .def_17 .def_7))) (let ((.def_244 (ite .def_243 false .def_242))) (let ((.def_245 (and .def_16 .def_7))) (let ((.def_246 (ite .def_245 false .def_244))) (let ((.def_247 (and .def_19 .def_6))) (let ((.def_248 (ite .def_247 true .def_246))) (let ((.def_249 (and .def_18 .def_6))) (let ((.def_250 (ite .def_249 false .def_248))) (let ((.def_251 (and .def_17 .def_6))) (let ((.def_252 (ite .def_251 false .def_250))) (let ((.def_253 (and .def_16 .def_6))) (let ((.def_254 (ite .def_253 false .def_252))) (let ((.def_255 (and .def_19 .def_5))) (let ((.def_256 (ite .def_255 false .def_254))) (let ((.def_257 (and .def_18 .def_5))) (let ((.def_258 (ite .def_257 true .def_256))) (let ((.def_259 (and .def_17 .def_5))) (let ((.def_260 (ite .def_259 false .def_258))) (let ((.def_261 (and .def_16 .def_5))) (let ((.def_262 (ite .def_261 false .def_260))) (let ((.def_263 (and .def_19 .def_4))) (let ((.def_264 (ite .def_263 false .def_262))) (let ((.def_265 (and .def_18 .def_4))) (let ((.def_266 (ite .def_265 false .def_264))) (let ((.def_267 (and .def_17 .def_4))) (let ((.def_268 (ite .def_267 true .def_266))) (let ((.def_269 (and .def_16 .def_4))) (let ((.def_270 (ite .def_269 false .def_268))) (let ((.def_271 (ite .def_11 1.0 0.0))) (let ((.def_272 (= .def_271 .def_196))) (let ((.def_273 (and .def_272 .def_270 .def_240 .def_239 .def_231 .def_223))) (let ((.def_274 (<= t@1 t@1))) (let ((.def_275 (< (- 1.0) t@1))) (let ((.def_276 (and .def_275 .def_274))) (let ((.def_277 (=> .def_276 .def_273))) (let ((.def_278 (<= dur_make_treatment@1 15.0))) (let ((.def_279 (<= 15.0 dur_make_treatment@1))) (let ((.def_280 (and .def_279 .def_278))) (let ((.def_281 (and .def_280 .def_213 .def_277 .def_216 .def_204 .def_182 .def_163))) (let ((.def_282 (=> act_make_treatment@1 .def_281))) (let ((.def_283 (<= fluent_counter_t3@0 31.0))) (let ((.def_284 (<= 0.0 fluent_counter_t3@0))) (let ((.def_285 (<= fluent_counter_t2@0 31.0))) (let ((.def_286 (<= 0.0 fluent_counter_t2@0))) (let ((.def_287 (<= fluent_counter_t1@0 31.0))) (let ((.def_288 (<= 0.0 fluent_counter_t1@0))) (let ((.def_289 (<= fluent_counter_t0@0 31.0))) (let ((.def_290 (<= 0.0 fluent_counter_t0@0))) (let ((.def_291 (= fluent_counter_t3@0 0.0))) (let ((.def_292 (= fluent_counter_t2@0 0.0))) (let ((.def_293 (= fluent_counter_t1@0 0.0))) (let ((.def_294 (= fluent_counter_t0@0 0.0))) (let ((.def_295 (= false false))) (let ((.def_296 (= fluent_ready_i1_t3@0 false))) (let ((.def_297 (= fluent_ready_i0_t3@0 false))) (let ((.def_298 (= fluent_ready_i1_t2@0 false))) (let ((.def_299 (= fluent_ready_i0_t2@0 false))) (let ((.def_300 (= fluent_ready_i1_t1@0 false))) (let ((.def_301 (= fluent_ready_i0_t1@0 false))) (let ((.def_302 (= fluent_started_i1_t2@0 false))) (let ((.def_303 (= fluent_started_i0_t2@0 false))) (let ((.def_304 (= fluent_started_i1_t1@0 false))) (let ((.def_305 (= fluent_started_i0_t1@0 false))) (let ((.def_306 (= fluent_started_i1_t0@0 false))) (let ((.def_307 (= fluent_started_i0_t0@0 false))) (let ((.def_308 (= fluent_treated_i1_t3@0 false))) (let ((.def_309 (= fluent_treated_i0_t3@0 false))) (let ((.def_310 (= fluent_treated_i1_t2@0 false))) (let ((.def_311 (= fluent_treated_i0_t2@0 false))) (let ((.def_312 (= fluent_treated_i1_t1@0 false))) (let ((.def_313 (= fluent_treated_i0_t1@0 false))) (let ((.def_314 (= fluent_treated_i1_t0@0 false))) (let ((.def_315 (= fluent_treated_i0_t0@0 false))) (let ((.def_316 (= fluent_busy_@0 false))) (let ((.def_317 (= fluent_ready_i1_t0@0 true))) (let ((.def_318 (= fluent_started_i1_t3@0 true))) (let ((.def_319 (= fluent_ready_i0_t0@0 true))) (let ((.def_320 (= fluent_started_i0_t3@0 true))) (let ((.def_321 (= true true))) (let ((.def_322 (= 1.0 1.0))) (let ((.def_323 (= 0.0 0.0))) (let ((.def_324 (and .def_323 .def_322 .def_321 .def_321 .def_321 .def_320 .def_319 .def_318 .def_317 .def_316 .def_315 .def_314 .def_313 .def_312 .def_311 .def_310 .def_309 .def_308 .def_307 .def_306 .def_305 .def_304 .def_303 .def_302 .def_301 .def_300 .def_299 .def_298 .def_297 .def_296 .def_295 .def_295 .def_295 .def_295 .def_295 .def_295 .def_295 .def_295 .def_295 .def_295 .def_295 .def_295 .def_295 .def_294 .def_293 .def_292 .def_291 .def_290 .def_289 .def_288 .def_287 .def_286 .def_285 .def_284 .def_283))) (let ((.def_325 (and .def_324 .def_282 .def_146 true true .def_145 .def_20 .def_15 .def_14 .def_13 .def_10 .def_9 .def_8 .def_3 .def_2 .def_1 .def_0 true))) .def_325)))))))))))))))))))))))))))))))))))))))))))))))))))))))))))))))))))))))))))))))))))))))))))))))))))))))))))))))))))))))))))))))))))))))))))))))))))))))))))))))))))))))))))))))))))))))))))))))))))))))))))))))))))))))))))))))))))))))))))))))))))))))))))))))))))))))))))))))))))))))))))))))))))))))))))))))))))))))))))))))))))))))
(check-sat)


